StudentsNr = 50;
InstructorsNr = 23;
DaysNr = 9;
SlotsPerDay = 40;
AvailabilitySlotsLenght = 20;
RoomNr = 2;
ProgrammNr = 2;
DegreeNr = 2;
RolesNr = 3;
CoursesNr = 12;
InstructorsProgramm = [{2}, {2}, {1}, {2}, {2}, {1}, {1}, {1}, {1}, {2}, {2}, {1}, {1}, {1}, {1}, {1}, {1}, {2}, {1}, {1}, {2}, {1}, {2}];
InstructorRolesPerProgramm = [|{7, 9, 12, 15, 19}, {8, 9, 12, 14, 15, 19, 22}, {9, 12, 13, 15, 19, 22}|{1, 2, 10}, {2, 5, 21}, {1, 5, 10, 11, 21}|];
InstructorsAvailability = [|1, 1, 1, 0, 0, 1, 1, 1, 1, 1, 1, 1, 1, 1, 1, 1, 1, 1, |0, 1, 1, 1, 1, 1, 1, 1, 1, 1, 1, 1, 1, 1, 1, 1, 1, 1, |1, 1, 0, 1, 1, 0, 1, 1, 0, 1, 1, 1, 1, 1, 0, 0, 1, 0, |1, 0, 1, 1, 1, 0, 1, 0, 1, 1, 1, 1, 1, 1, 0, 0, 0, 0, |1, 1, 1, 1, 0, 1, 1, 1, 1, 1, 1, 1, 0, 1, 1, 1, 1, 1, |1, 1, 0, 1, 1, 1, 1, 1, 1, 1, 1, 1, 1, 1, 1, 0, 0, 0, |1, 1, 1, 1, 1, 0, 1, 1, 0, 1, 1, 1, 0, 1, 0, 0, 0, 1, |1, 1, 1, 1, 1, 1, 1, 0, 0, 0, 1, 1, 1, 1, 1, 1, 1, 1, |1, 1, 1, 1, 1, 1, 1, 1, 1, 1, 1, 1, 1, 1, 1, 0, 0, 1, |1, 1, 1, 1, 1, 1, 1, 0, 0, 1, 1, 0, 1, 1, 1, 0, 1, 1, |1, 0, 1, 1, 0, 0, 1, 1, 1, 1, 1, 1, 1, 0, 1, 1, 1, 1, |1, 1, 1, 0, 0, 0, 0, 0, 1, 0, 1, 1, 1, 1, 1, 0, 0, 1, |1, 1, 1, 1, 1, 1, 1, 1, 0, 0, 0, 1, 1, 1, 1, 1, 0, 1, |0, 1, 1, 1, 1, 1, 1, 1, 1, 1, 1, 1, 0, 0, 1, 1, 1, 1, |1, 1, 1, 1, 1, 0, 0, 1, 1, 1, 1, 1, 1, 0, 1, 1, 1, 1, |1, 1, 1, 1, 1, 1, 1, 1, 1, 1, 1, 1, 1, 0, 1, 1, 1, 0, |1, 1, 0, 0, 1, 1, 1, 1, 1, 1, 1, 1, 1, 0, 1, 1, 0, 0, |1, 1, 0, 1, 1, 1, 1, 0, 0, 1, 1, 1, 1, 1, 1, 1, 1, 1, |1, 1, 1, 1, 0, 1, 1, 1, 0, 1, 1, 1, 1, 1, 1, 1, 0, 0, |1, 1, 1, 1, 1, 1, 1, 1, 1, 1, 1, 1, 1, 1, 1, 1, 1, 1, |1, 1, 1, 1, 1, 1, 1, 1, 0, 0, 1, 0, 0, 1, 1, 1, 1, 1, |1, 1, 1, 1, 0, 1, 1, 1, 1, 1, 1, 1, 1, 1, 1, 0, 0, 0, |1, 1, 1, 1, 1, 1, 1, 1, 1, 1, 1, 1, 1, 1, 0, 0, 0, 1|];
StudentsProgramm = [1, 1, 1, 2, 1, 2, 2, 2, 1, 2, 1, 2, 1, 1, 2, 1, 1, 1, 2, 1, 2, 2, 2, 1, 2, 2, 2, 2, 2, 2, 1, 1, 2, 1, 1, 2, 2, 2, 2, 1, 1, 1, 1, 1, 2, 2, 1, 2, 2, 2];
StudentsDegree = [1, 1, 1, 2, 1, 1, 2, 2, 1, 2, 1, 1, 1, 1, 2, 2, 2, 2, 2, 1, 2, 2, 2, 1, 2, 1, 2, 2, 2, 2, 1, 1, 1, 2, 2, 2, 1, 1, 2, 1, 2, 1, 1, 2, 1, 1, 1, 2, 2, 1];
StudentsSupervisorId = [8, 12, 13, 2, 7, 18, 23, 21, 20, 4, 12, 23, 7, 22, 4, 6, 7, 22, 23, 14, 1, 5, 4, 15, 4, 21, 23, 18, 11, 2, 22, 12, 18, 8, 13, 23, 2, 10, 10, 16, 22, 15, 7, 6, 1, 18, 6, 18, 2, 2];
StudentsCourseIds = [{1, 2, 3, 4, 5, 6, 7, 8, 9, 10, 11, 12}, {1, 2, 3, 4, 5, 6, 7, 8, 9, 10, 11, 12}, {1, 2, 3, 4, 5, 6, 7, 8, 9, 10, 11, 12}, {2, 4}, {1, 2, 3, 4, 5, 6, 7, 8, 9, 10, 11, 12}, {1, 2, 3, 4, 5, 6, 7, 8, 9, 10, 11, 12}, {3, 12}, {4, 11}, {1, 2, 3, 4, 5, 6, 7, 8, 9, 10, 11, 12}, {7, 9}, {1, 2, 3, 4, 5, 6, 7, 8, 9, 10, 11, 12}, {1, 2, 3, 4, 5, 6, 7, 8, 9, 10, 11, 12}, {1, 2, 3, 4, 5, 6, 7, 8, 9, 10, 11, 12}, {1, 2, 3, 4, 5, 6, 7, 8, 9, 10, 11, 12}, {5, 10}, {5, 12}, {1, 2}, {1, 7}, {7, 8}, {1, 2, 3, 4, 5, 6, 7, 8, 9, 10, 11, 12}, {3, 7}, {6, 12}, {1, 5}, {1, 2, 3, 4, 5, 6, 7, 8, 9, 10, 11, 12}, {2, 11}, {1, 2, 3, 4, 5, 6, 7, 8, 9, 10, 11, 12}, {4, 5}, {4, 6}, {1, 7}, {3, 8}, {1, 2, 3, 4, 5, 6, 7, 8, 9, 10, 11, 12}, {1, 2, 3, 4, 5, 6, 7, 8, 9, 10, 11, 12}, {1, 2, 3, 4, 5, 6, 7, 8, 9, 10, 11, 12}, {7, 12}, {9, 10}, {9, 11}, {1, 2, 3, 4, 5, 6, 7, 8, 9, 10, 11, 12}, {1, 2, 3, 4, 5, 6, 7, 8, 9, 10, 11, 12}, {6, 12}, {1, 2, 3, 4, 5, 6, 7, 8, 9, 10, 11, 12}, {1, 5}, {1, 2, 3, 4, 5, 6, 7, 8, 9, 10, 11, 12}, {1, 2, 3, 4, 5, 6, 7, 8, 9, 10, 11, 12}, {4, 6}, {1, 2, 3, 4, 5, 6, 7, 8, 9, 10, 11, 12}, {1, 2, 3, 4, 5, 6, 7, 8, 9, 10, 11, 12}, {1, 2, 3, 4, 5, 6, 7, 8, 9, 10, 11, 12}, {3, 6}, {6, 7}, {1, 2, 3, 4, 5, 6, 7, 8, 9, 10, 11, 12}];
StudentsAvailability = [|1, 1, 1, 0, 0, 0, 1, 1, 1, 1, 1, 0, 1, 1, 1, 1, 1, 1, |1, 1, 1, 1, 1, 1, 1, 1, 1, 1, 1, 1, 0, 0, 1, 1, 1, 1, |0, 1, 1, 1, 1, 1, 1, 1, 1, 1, 1, 1, 1, 1, 1, 1, 1, 1, |1, 0, 0, 1, 1, 1, 1, 1, 1, 1, 1, 1, 1, 0, 1, 1, 1, 0, |0, 0, 0, 1, 1, 1, 1, 1, 1, 1, 1, 1, 1, 1, 1, 1, 1, 1, |0, 0, 0, 0, 1, 1, 1, 1, 1, 1, 1, 1, 0, 1, 1, 1, 1, 1, |1, 1, 1, 1, 1, 1, 1, 1, 1, 1, 1, 1, 1, 1, 1, 1, 1, 1, |1, 1, 1, 1, 1, 1, 1, 1, 1, 1, 1, 1, 1, 1, 1, 1, 1, 1, |0, 1, 1, 1, 1, 1, 1, 1, 0, 1, 1, 1, 1, 1, 1, 0, 0, 1, |1, 1, 1, 1, 0, 0, 1, 1, 1, 1, 1, 1, 1, 1, 1, 1, 1, 1, |0, 0, 0, 1, 1, 1, 1, 1, 1, 1, 1, 0, 1, 1, 1, 1, 1, 1, |1, 1, 1, 1, 1, 1, 1, 1, 1, 1, 1, 1, 1, 1, 1, 1, 0, 1, |1, 1, 1, 1, 1, 1, 1, 1, 1, 1, 1, 1, 1, 1, 1, 1, 1, 0, |1, 1, 1, 1, 1, 1, 1, 1, 1, 1, 1, 1, 1, 1, 1, 1, 1, 1, |1, 1, 1, 1, 1, 1, 1, 1, 1, 1, 1, 1, 1, 1, 1, 1, 1, 1, |1, 1, 1, 0, 1, 1, 1, 1, 1, 1, 1, 1, 1, 1, 1, 1, 0, 1, |1, 1, 1, 1, 1, 0, 1, 1, 1, 1, 1, 0, 0, 1, 1, 1, 1, 0, |1, 1, 1, 1, 1, 1, 1, 1, 1, 1, 1, 1, 1, 1, 1, 1, 1, 1, |1, 1, 1, 1, 1, 1, 1, 1, 1, 0, 0, 1, 1, 1, 1, 1, 1, 1, |1, 1, 1, 1, 1, 1, 1, 1, 1, 1, 1, 1, 1, 1, 1, 1, 1, 1, |1, 1, 1, 1, 1, 1, 1, 1, 1, 1, 1, 1, 1, 1, 1, 1, 1, 1, |1, 1, 0, 1, 1, 1, 1, 1, 1, 1, 0, 0, 0, 1, 1, 1, 1, 1, |1, 1, 1, 1, 1, 1, 1, 1, 1, 1, 1, 1, 1, 1, 1, 1, 1, 1, |1, 1, 0, 1, 1, 1, 0, 0, 0, 0, 1, 1, 1, 1, 1, 1, 0, 1, |1, 1, 1, 0, 1, 1, 0, 0, 1, 1, 1, 1, 1, 1, 1, 1, 1, 1, |1, 1, 1, 1, 1, 1, 1, 1, 1, 1, 1, 1, 1, 1, 1, 1, 1, 1, |1, 1, 1, 1, 1, 1, 1, 1, 1, 1, 1, 1, 1, 0, 1, 0, 1, 1, |1, 1, 1, 1, 1, 1, 1, 0, 1, 1, 1, 0, 0, 0, 1, 1, 1, 1, |1, 1, 1, 1, 1, 1, 1, 1, 1, 1, 1, 1, 0, 1, 1, 1, 1, 0, |1, 1, 1, 1, 1, 1, 1, 1, 1, 0, 1, 1, 1, 1, 0, 0, 1, 1, |1, 1, 0, 1, 0, 1, 0, 0, 1, 1, 1, 1, 1, 1, 1, 1, 0, 1, |0, 0, 0, 1, 1, 1, 1, 1, 1, 0, 1, 1, 1, 1, 0, 0, 1, 1, |1, 1, 1, 1, 1, 1, 1, 1, 1, 1, 1, 1, 1, 1, 1, 1, 1, 1, |1, 1, 1, 0, 1, 1, 1, 1, 1, 0, 1, 1, 1, 1, 1, 1, 0, 0, |1, 0, 0, 0, 0, 1, 1, 1, 1, 1, 1, 1, 1, 1, 1, 1, 1, 1, |1, 1, 1, 1, 1, 1, 0, 1, 0, 0, 0, 1, 1, 0, 1, 1, 1, 1, |1, 1, 1, 1, 1, 1, 1, 0, 0, 0, 1, 1, 0, 1, 1, 1, 1, 1, |0, 1, 1, 1, 1, 1, 1, 1, 1, 1, 1, 1, 1, 1, 1, 1, 1, 1, |1, 1, 0, 1, 1, 1, 1, 1, 1, 1, 1, 1, 1, 1, 0, 0, 1, 1, |1, 1, 1, 1, 1, 1, 1, 1, 1, 1, 1, 1, 1, 1, 1, 1, 1, 1, |1, 0, 0, 1, 1, 1, 1, 1, 1, 1, 1, 1, 1, 1, 1, 1, 1, 1, |1, 1, 1, 1, 1, 0, 1, 1, 1, 1, 1, 0, 0, 1, 1, 1, 1, 0, |1, 1, 1, 1, 1, 1, 1, 1, 1, 1, 1, 1, 1, 1, 1, 1, 1, 1, |0, 1, 1, 1, 1, 1, 1, 0, 1, 1, 1, 1, 1, 1, 1, 0, 1, 1, |1, 1, 1, 0, 1, 1, 1, 1, 1, 1, 1, 1, 1, 1, 1, 1, 1, 0, |1, 1, 1, 1, 1, 1, 1, 1, 1, 1, 1, 1, 1, 1, 1, 1, 1, 1, |1, 1, 1, 0, 0, 0, 0, 1, 1, 1, 1, 0, 1, 1, 1, 1, 1, 1, |1, 1, 1, 1, 1, 1, 1, 1, 1, 1, 1, 1, 0, 0, 0, 1, 1, 1, |0, 0, 1, 1, 1, 0, 1, 1, 1, 1, 1, 1, 1, 1, 0, 0, 0, 0, |1, 1, 1, 1, 1, 1, 1, 1, 1, 1, 1, 1, 1, 1, 1, 1, 1, 1|];
TheoryticalMinCard = [0, 0, 0, 0, 0, 2, 2, 0, 0, 0, 0, 2, 0, 0, 2, 0, 0, 0, 0, 0, 1, 0, 1, 0, 1, 2, 1, 0, 0, 1, 0, 0, 2, 0, 0, 1, 2, 2, 0, 0, 0, 0, 0, 0, 2, 2, 0, 2, 0, 2];
CoursesInstructorIds = [{2, 3, 6, 7, 9, 12, 13, 14, 15, 16, 17, 18, 19}, {3, 5, 6, 7, 9, 11, 12, 14, 15, 17, 18, 19}, {4, 6, 22}, {4, 5, 7, 8, 10, 11, 12, 13, 14, 15, 16, 17, 18, 19, 20, 21, 22}, {5, 8, 16}, {2, 3, 6, 7, 8, 9, 11, 15, 16, 19, 20, 22}, {1, 4, 6, 7, 8, 9, 10, 11, 12, 13, 15, 16, 19, 20, 21, 22}, {4, 7, 8, 9, 11, 12, 13, 14, 18, 22, 23}, {3, 4, 5, 6, 7, 9, 11, 12, 14, 19, 21}, {3, 9, 16}, {2, 15, 18, 22}, {1, 5, 6, 7, 8, 9, 10, 11, 14, 16, 18, 19, 20, 21}];
RolesDemands = [3, 1, 2];
RolesContinuity = [1];
ExamLen = [4, 4, 4, 5, 4, 4, 5, 5, 4, 5, 4, 4, 4, 4, 5, 5, 5, 5, 5, 4, 5, 5, 5, 4, 5, 4, 5, 5, 5, 5, 4, 4, 4, 5, 5, 5, 4, 4, 5, 4, 5, 4, 4, 5, 4, 4, 4, 5, 5, 4];
LunchTsMinLen = 2;
LunchStarts = [17..25, 59..69, 97..108, 134..145, 176..188, 211..222, 257..265, 298..302, 337..342];
SupervisorAvailable = 0;
OptimalLunchLenght = [2, 5];
OptimalStartTs = [1, 2];
OptimalFinishTs = [2, 39];
MinimizeRooms = 400;
RolesSoftContinuity = [|1, 2, 3|4, 2, 3|];
SameDegreeInRoom = 10;
Mergeability = 2;
